n_res = 4;
rc = [ 12, 12, 13, 12 ];
n_tasks = 30;
d = [ 3, 2, 8, 4, 3, 4, 1, 5, 3, 4, 2, 8, 10, 3, 9, 2, 2, 7, 10, 6, 4, 9, 10, 8, 3, 2, 5, 9, 8, 4 ];
rr = [| 0, 10, 0, 2, 0, 0, 9, 0, 4, 2, 5, 0, 5, 0, 2, 0, 1, 1, 0, 0, 0, 0, 6, 0, 0, 3, 0, 8, 10, 4
      | 0, 0, 7, 0, 0, 5, 0, 0, 0, 0, 3, 10, 9, 4, 3, 0, 0, 0, 0, 0, 1, 5, 0, 0, 0, 5, 4, 2, 10, 0
      | 0, 0, 7, 9, 8, 0, 0, 3, 8, 4, 2, 1, 0, 0, 0, 0, 0, 0, 10, 6, 5, 3, 0, 2, 0, 1, 0, 0, 10, 9
      | 3, 0, 0, 6, 0, 0, 0, 0, 0, 4, 2, 0, 9, 5, 0, 3, 0, 4, 0, 1, 3, 4, 2, 1, 8, 10, 5, 0, 7, 0 |];
suc = [ { 2 }, 
        { 3 }, 
        { 4 }, 
        { 5 }, 
        { 6 }, 
        { 7 }, 
        { 8 }, 
        { 9 }, 
        { 10 }, 
        { 11 }, 
        { 12 }, 
        { 13 }, 
        { 14 }, 
        { 15 }, 
        { 16 }, 
        { 17 }, 
        { 18 }, 
        { 19 }, 
        { 20 }, 
        { 21 }, 
        { 22 }, 
        { 23 }, 
        { 24 }, 
        { 25 }, 
        { 26 }, 
        { 27 }, 
        { 28 }, 
        { 29 }, 
        { 30 }, 
        {  }]; 
